
Gurobi 11.0.0 (linux64) logging started Wed Dec 18 05:39:04 2024

Set parameter LogFile to value "gurobi.log"
Set parameter InfUnbdInfo to value 1
Gurobi Optimizer version 11.0.0 build v11.0.0rc2 (linux64 - "Ubuntu 22.04.4 LTS")

CPU model: AMD EPYC 7V13 64-Core Processor, instruction set [SSE2|AVX|AVX2]
Thread count: 128 physical cores, 128 logical processors, using up to 32 threads

Optimize a model with 97 rows, 348 columns and 272 nonzeros
Model fingerprint: 0x193e520b
Model has 242 quadratic constraints
Model has 35 general constraints
Variable types: 72 continuous, 276 integer (0 binary)
Coefficient statistics:
  Matrix range     [1e+00, 2e+01]
  QMatrix range    [1e+00, 2e+02]
  QLMatrix range   [1e+00, 1e+00]
  Objective range  [1e+00, 1e+00]
  Bounds range     [1e+00, 2e+06]
  RHS range        [1e+00, 2e+06]
  QRHS range       [2e+02, 9e+03]
Using branch priorities (all 0).
Presolve added 89 rows and 54 columns
Presolve time: 0.01s
Presolved: 836 rows, 724 columns, 3164 nonzeros
Presolved model has 208 SOS constraint(s)
Presolved model has 70 bilinear constraint(s)
Warning: Model contains variables with very large bounds participating
         in product terms.
         Presolve was not able to compute smaller bounds for these variables.
         Consider bounding these variables or reformulating the model.


Solving non-convex MIQCP

Variable types: 198 continuous, 526 integer (179 binary)

Root relaxation: objective 6.149345e+01, 272 iterations, 0.00 seconds (0.00 work units)

    Nodes    |    Current Node    |     Objective Bounds      |     Work
 Expl Unexpl |  Obj  Depth IntInf | Incumbent    BestBd   Gap | It/Node Time

     0     0   61.49345    0  134          -   61.49345      -     -    0s
     0     0   61.49475    0  121          -   61.49475      -     -    0s
H    0     0                    276101.02050   61.49475   100%     -    0s
     0     0  153.62877    0  233 276101.021  153.62877   100%     -    0s
H    0     0                    130737.75000  154.16350   100%     -    0s
     0     0  154.16350    0  233 130737.750  154.16350   100%     -    0s
     0     0  184.78863    0  263 130737.750  184.78863   100%     -    0s
     0     0  184.97546    0  255 130737.750  184.97546   100%     -    0s
     0     0  187.11314    0  263 130737.750  187.11314   100%     -    0s
     0     0  187.26143    0  246 130737.750  187.26143   100%     -    0s
     0     0  189.21338    0  260 130737.750  189.21338   100%     -    0s
     0     0  209.51186    0  266 130737.750  209.51186   100%     -    0s
     0     0  219.34133    0  236 130737.750  219.34133   100%     -    0s
     0     0 1157.46656    0  266 130737.750 1157.46656  99.1%     -    0s
     0     0 2280.65671    0  183 130737.750 2280.65671  98.3%     -    0s
     0     0 2298.73514    0  252 130737.750 2298.73514  98.2%     -    0s
     0     0 2298.73514    0  274 130737.750 2298.73514  98.2%     -    0s
     0     0 2298.73514    0  204 130737.750 2298.73514  98.2%     -    0s
     0     0 2477.68164    0  270 130737.750 2477.68164  98.1%     -    0s
     0     0 3236.21078    0  258 130737.750 3236.21078  97.5%     -    0s
     0     0 3701.48026    0   86 130737.750 3701.48026  97.2%     -    0s
H    0     0                    128024.52050 3701.48026  97.1%     -    0s
H    0     0                    93488.250000 3974.74817  95.7%     -    0s
     0     0 3974.74817    0  243 93488.2500 3974.74817  95.7%     -    0s
     0     0 4180.31042    0  239 93488.2500 4180.31042  95.5%     -    0s
     0     0 4416.74752    0  229 93488.2500 4416.74752  95.3%     -    0s
H    0     0                    92648.250000 4642.81480  95.0%     -    0s
     0     0 4642.81480    0  244 92648.2500 4642.81480  95.0%     -    0s
     0     0 4901.78539    0  243 92648.2500 4901.78539  94.7%     -    0s
     0     0 5024.92448    0  247 92648.2500 5024.92448  94.6%     -    0s
     0     0 5185.87871    0  238 92648.2500 5185.87871  94.4%     -    0s
     0     0 5528.30821    0  244 92648.2500 5528.30821  94.0%     -    0s
     0     0 5637.06118    0  234 92648.2500 5637.06118  93.9%     -    0s
     0     0 6034.79606    0  233 92648.2500 6034.79606  93.5%     -    0s
     0     0 6145.47696    0  252 92648.2500 6145.47696  93.4%     -    0s
     0     0 6748.89786    0  259 92648.2500 6748.89786  92.7%     -    0s
H    0     0                    92227.750000 6979.73711  92.4%     -    0s
     0     0 6979.73711    0  263 92227.7500 6979.73711  92.4%     -    0s
     0     0 7055.17166    0  250 92227.7500 7055.17166  92.4%     -    0s
     0     0 7166.06665    0  246 92227.7500 7166.06665  92.2%     -    0s
     0     0 7323.20874    0  218 92227.7500 7323.20874  92.1%     -    0s
     0     0 7390.33917    0  200 92227.7500 7390.33917  92.0%     -    0s
     0     0 7560.01551    0  253 92227.7500 7560.01551  91.8%     -    0s
     0     0 7561.90610    0  218 92227.7500 7561.90610  91.8%     -    0s
     0     0 7759.29949    0  216 92227.7500 7759.29949  91.6%     -    0s
     0     0 7794.88698    0  211 92227.7500 7794.88698  91.5%     -    0s
     0     0 7939.51868    0  253 92227.7500 7939.51868  91.4%     -    0s
     0     0 8004.90168    0  242 92227.7500 8004.90168  91.3%     -    0s
     0     0 8144.32061    0  245 92227.7500 8144.32061  91.2%     -    0s
     0     0 8164.79120    0  246 92227.7500 8164.79120  91.1%     -    0s
     0     0 8458.74704    0  242 92227.7500 8458.74704  90.8%     -    0s
     0     0 8585.42844    0  226 92227.7500 8585.42844  90.7%     -    0s
     0     0 8730.05984    0  229 92227.7500 8730.05984  90.5%     -    0s
     0     0 8794.80815    0  227 92227.7500 8794.80815  90.5%     -    0s
     0     0 8871.09160    0  227 92227.7500 8871.09160  90.4%     -    0s
     0     0 8871.09160    0  227 92227.7500 8871.09160  90.4%     -    0s
     0     0 8901.38743    0  228 92227.7500 8901.38743  90.3%     -    0s
     0     0 9052.92298    0  229 92227.7500 9052.92298  90.2%     -    0s
     0     0 9206.42695    0  227 92227.7500 9206.42695  90.0%     -    0s
     0     0 9236.70268    0  233 92227.7500 9236.70268  90.0%     -    0s
     0     0 9375.55023    0  238 92227.7500 9375.55023  89.8%     -    1s
     0     0 9383.84203    0  238 92227.7500 9383.84203  89.8%     -    1s
     0     0 9538.62536    0  238 92227.7500 9538.62536  89.7%     -    1s
     0     0 9675.44435    0  238 92227.7500 9675.44435  89.5%     -    1s
H    0     0                    87983.158458 11393.4160  87.1%     -    1s
     0     0 11393.4160    0   87 87983.1585 11393.4160  87.1%     -    1s
H    0     0                    86398.351874 11393.4160  86.8%     -    1s
H    0     0                    86350.289374 11393.4160  86.8%     -    1s
     0     0 11393.4160    0   55 86350.2894 11393.4160  86.8%     -    2s
     0     0 11393.4160    0  108 86350.2894 11393.4160  86.8%     -    2s
     0     0 11393.4160    0  108 86350.2894 11393.4160  86.8%     -    2s
     0     0 11393.4160    0  125 86350.2894 11393.4160  86.8%     -    2s
     0     0 11393.4160    0   62 86350.2894 11393.4160  86.8%     -    3s
     0     0 11393.4160    0   76 86350.2894 11393.4160  86.8%     -    3s
     0     0 11393.4160    0   69 86350.2894 11393.4160  86.8%     -    3s
     0     0 11393.4160    0   79 86350.2894 11393.4160  86.8%     -    3s
     0     0 11393.4160    0   82 86350.2894 11393.4160  86.8%     -    3s
     0     0 11393.4160    0   66 86350.2894 11393.4160  86.8%     -    4s
H    0     0                    83828.289374 11393.4160  86.4%     -    4s
     0     2 11393.4160    0   66 83828.2894 11393.4160  86.4%     -    4s
     3     8 11393.4160    2  105 83828.2894 11393.4160  86.4%  86.3    5s
H   90    80                    83828.289365 11393.4160  86.4%  46.4    5s
H  114    80                    75085.750000 11393.4160  84.8%  41.5    5s
H  153   109                    71130.675498 11393.4160  84.0%  34.0    5s
H  530   237                    69751.750000 11393.4160  83.7%  21.7    6s
H  851   516                    69271.312500 11393.4160  83.6%  18.0    7s
H  955   516                    68689.246786 11393.4160  83.4%  18.0    7s
H 1052   516                    68688.809286 11393.4160  83.4%  17.2    7s
H 1899   732                    68661.784501 11393.4160  83.4%  15.3    7s
H 1908   732                    66275.852205 11393.4160  82.8%  15.4    7s
H 2689   872                    66094.738535 11393.4160  82.8%  14.7    7s
* 4199  1008             110    65891.789705 11393.4160  82.7%  13.9    8s
  5583  1333 infeasible   13      65891.7897 11393.4160  82.7%  13.3   10s
H 5589  1333                    64579.894083 11393.4160  82.4%  13.3   10s
H12652   743                    64100.148522 11393.4160  82.2%  14.1   13s
*12655   743              78    64005.523522 11393.4160  82.2%  14.1   13s
H12657   743                    63958.211022 11393.4160  82.2%  14.1   13s
H14481   404                    63710.772076 11393.4160  82.1%  14.4   19s
 14592   228 infeasible   33      63710.7721 11393.4160  82.1%  14.5   20s
H15345   228                    63710.772070 11393.4160  82.1%  14.3   20s

Cutting planes:
  Learned: 1
  Gomory: 7
  Cover: 9
  Implied bound: 217
  MIR: 39
  StrongCG: 1
  Flow cover: 7
  Inf proof: 16
  Network: 1
  RLT: 45
  Relax-and-lift: 12

Explored 16223 nodes (235447 simplex iterations) in 21.39 seconds (1.33 work units)
Thread count was 32 (of 128 available processors)

Solution count 10: 63710.8 63710.8 63958.2 ... 68661.8

Optimal solution found (tolerance 1.00e-04)
Warning: max constraint violation (6.7271e-04) exceeds tolerance
Warning: max general constraint violation (6.7271e-04) exceeds tolerance
Best objective 6.371077206981e+04, best bound 6.371077206981e+04, gap 0.0000%

Gurobi 11.0.0 (linux64) logging started Wed Dec 18 05:45:23 2024

Set parameter LogFile to value "gurobi.log"
Set parameter InfUnbdInfo to value 1
Gurobi Optimizer version 11.0.0 build v11.0.0rc2 (linux64 - "Ubuntu 22.04.4 LTS")

CPU model: AMD EPYC 7V13 64-Core Processor, instruction set [SSE2|AVX|AVX2]
Thread count: 128 physical cores, 128 logical processors, using up to 32 threads

Optimize a model with 97 rows, 348 columns and 272 nonzeros
Model fingerprint: 0xbd2e0eb2
Model has 242 quadratic constraints
Model has 35 general constraints
Variable types: 72 continuous, 276 integer (0 binary)
Coefficient statistics:
  Matrix range     [1e+00, 2e+01]
  QMatrix range    [1e+00, 2e+02]
  QLMatrix range   [1e+00, 1e+00]
  Objective range  [1e+00, 1e+00]
  Bounds range     [1e+00, 2e+06]
  RHS range        [1e+00, 2e+06]
  QRHS range       [2e+02, 9e+03]
Using branch priorities (all 0).
Presolve added 89 rows and 54 columns
Presolve time: 0.01s
Presolved: 832 rows, 723 columns, 3152 nonzeros
Presolved model has 208 SOS constraint(s)
Presolved model has 69 bilinear constraint(s)
Warning: Model contains variables with very large bounds participating
         in product terms.
         Presolve was not able to compute smaller bounds for these variables.
         Consider bounding these variables or reformulating the model.


Solving non-convex MIQCP

Variable types: 198 continuous, 525 integer (179 binary)

Root relaxation: objective 6.149345e+01, 290 iterations, 0.00 seconds (0.00 work units)

    Nodes    |    Current Node    |     Objective Bounds      |     Work
 Expl Unexpl |  Obj  Depth IntInf | Incumbent    BestBd   Gap | It/Node Time

     0     0   61.49345    0  161          -   61.49345      -     -    0s
     0     0   61.49475    0  155          -   61.49475      -     -    0s
H    0     0                    1.533850e+07   61.49475   100%     -    0s
     0     0  153.99089    0  234 1.5339e+07  153.99089   100%     -    0s
H    0     0                    2256655.9375  154.53074   100%     -    0s
H    0     0                    217021.51625  154.53074   100%     -    0s
     0     0  154.53074    0  234 217021.516  154.53074   100%     -    0s
     0     0  176.64460    0  270 217021.516  176.64460   100%     -    0s
     0     0  177.79519    0  266 217021.516  177.79519   100%     -    0s
     0     0  186.76250    0  264 217021.516  186.76250   100%     -    0s
     0     0  188.57108    0  274 217021.516  188.57108   100%     -    0s
     0     0  196.72103    0  272 217021.516  196.72103   100%     -    0s
     0     0  197.16589    0  277 217021.516  197.16589   100%     -    0s
     0     0  240.57446    0  265 217021.516  240.57446   100%     -    0s
     0     0  240.57446    0  262 217021.516  240.57446   100%     -    0s
     0     0  415.43524    0  285 217021.516  415.43524   100%     -    0s
     0     0  545.56385    0  264 217021.516  545.56385   100%     -    0s
     0     0  703.43139    0  243 217021.516  703.43139   100%     -    0s
     0     0  765.30073    0  189 217021.516  765.30073   100%     -    0s
     0     0  894.36680    0  283 217021.516  894.36680   100%     -    0s
     0     0 1256.22050    0  220 217021.516 1256.22050  99.4%     -    0s
     0     0 1275.76697    0  269 217021.516 1275.76697  99.4%     -    0s
     0     0 1547.25557    0  184 217021.516 1547.25557  99.3%     -    0s
     0     0 2256.51634    0  218 217021.516 2256.51634  99.0%     -    0s
     0     0 2321.95774    0  148 217021.516 2321.95774  98.9%     -    0s
H    0     0                    217021.01625 2321.95774  98.9%     -    0s
     0     0 2325.05592    0  221 217021.016 2325.05592  98.9%     -    0s
     0     0 2325.05592    0  176 217021.016 2325.05592  98.9%     -    0s
     0     0 2325.05592    0  197 217021.016 2325.05592  98.9%     -    0s
     0     0 2377.27728    0  182 217021.016 2377.27728  98.9%     -    0s
     0     0 2437.73067    0  188 217021.016 2437.73067  98.9%     -    0s
     0     0 3197.11358    0   94 217021.016 3197.11358  98.5%     -    0s
     0     0 3313.79590    0  191 217021.016 3313.79590  98.5%     -    0s
H    0     0                    202731.35178 3508.25421  98.3%     -    0s
     0     0 3586.24775    0  238 202731.352 3586.24775  98.2%     -    0s
     0     0 3868.11425    0  216 202731.352 3868.11425  98.1%     -    0s
     0     0 4400.38562    0  211 202731.352 4400.38562  97.8%     -    0s
     0     0 4862.37829    0  246 202731.352 4862.37829  97.6%     -    0s
     0     0 4983.99136    0  195 202731.352 4983.99136  97.5%     -    0s
     0     0 5179.28688    0  199 202731.352 5179.28688  97.4%     -    0s
     0     0 5720.74634    0  164 202731.352 5720.74634  97.2%     -    0s
     0     0 5823.42066    0  239 202731.352 5823.42066  97.1%     -    0s
     0     0 6060.25974    0  186 202731.352 6060.25974  97.0%     -    0s
     0     0 6070.81400    0  177 202731.352 6070.81400  97.0%     -    0s
     0     0 6269.16185    0  186 202731.352 6269.16185  96.9%     -    0s
     0     0 6669.19964    0  168 202731.352 6669.19964  96.7%     -    0s
     0     0 7146.60832    0  186 202731.352 7146.60832  96.5%     -    0s
     0     0 7232.65610    0  160 202731.352 7232.65610  96.4%     -    0s
H    0     0                    107778.31323 7571.41437  93.0%     -    0s
     0     0 7571.41437    0  152 107778.313 7571.41437  93.0%     -    0s
     0     0 7720.81083    0  139 107778.313 7720.81083  92.8%     -    0s
     0     0 7930.47495    0  138 107778.313 7930.47495  92.6%     -    0s
     0     0 7980.47631    0  159 107778.313 7980.47631  92.6%     -    0s
     0     0 8395.51276    0  159 107778.313 8395.51276  92.2%     -    0s
     0     0 8433.46984    0  163 107778.313 8433.46984  92.2%     -    0s
     0     0 8458.74704    0  161 107778.313 8458.74704  92.2%     -    0s
     0     0 8458.74704    0  161 107778.313 8458.74704  92.2%     -    0s
     0     0 8519.13343    0  161 107778.313 8519.13343  92.1%     -    0s
     0     0 9478.75217    0   94 107778.313 9478.75217  91.2%     -    1s
     0     0 9478.75217    0   62 107778.313 9478.75217  91.2%     -    2s
     0     0 9478.75217    0  110 107778.313 9478.75217  91.2%     -    2s
     0     0 9478.75217    0  104 107778.313 9478.75217  91.2%     -    2s
     0     0 9478.75217    0   73 107778.313 9478.75217  91.2%     -    2s
     0     0 9478.75217    0  106 107778.313 9478.75217  91.2%     -    3s
     0     0 9478.75217    0   74 107778.313 9478.75217  91.2%     -    3s
     0     0 9478.75217    0   74 107778.313 9478.75217  91.2%     -    3s
     0     0 9478.75217    0   78 107778.313 9478.75217  91.2%     -    3s
     0     0 9478.75217    0   78 107778.313 9478.75217  91.2%     -    4s
H    0     2                    107778.31322 9478.75217  91.2%     -    5s
     0     2 9478.75217    0   66 107778.313 9478.75217  91.2%     -    5s
H   32    37                    107778.31321 9478.75217  91.2%  70.0    6s
H   93    75                    95267.812500 9478.75217  90.1%  58.0    6s
H  149   104                    76649.312500 9478.75217  87.6%  45.9    6s
H  304   131                    74221.750000 9478.75217  87.2%  32.6    6s
H  306   131                    68643.809286 9478.75217  86.2%  32.7    6s
*  950   234              32    66119.209576 9478.75217  85.7%  21.4    7s
H 1156   244                    65990.772076 9478.75217  85.6%  21.5    7s
H 1284   263                    63710.772076 9478.75217  85.1%  21.4    7s
  2851     3 24504.0445   24  129 63710.7721 12212.9387  80.8%  19.6   10s

Cutting planes:
  Learned: 1
  Gomory: 2
  Implied bound: 139
  MIR: 20
  StrongCG: 1
  Flow cover: 6
  Inf proof: 7
  Mod-K: 1
  Network: 1
  RLT: 51
  Relax-and-lift: 11
  BQP: 1

Explored 2941 nodes (62140 simplex iterations) in 10.22 seconds (0.72 work units)
Thread count was 32 (of 128 available processors)

Solution count 10: 63710.8 65990.8 66119.2 ... 202731

Optimal solution found (tolerance 1.00e-04)
Warning: max constraint violation (6.7261e-04) exceeds tolerance
Warning: max general constraint violation (6.7261e-04) exceeds tolerance
Best objective 6.371077207618e+04, best bound 6.371077207618e+04, gap 0.0000%

Gurobi 11.0.0 (linux64) logging started Wed Dec 18 11:36:23 2024

Set parameter LogFile to value "gurobi.log"
Set parameter InfUnbdInfo to value 1
Gurobi Optimizer version 11.0.0 build v11.0.0rc2 (linux64 - "Ubuntu 22.04.4 LTS")

CPU model: AMD EPYC 7V13 64-Core Processor, instruction set [SSE2|AVX|AVX2]
Thread count: 128 physical cores, 128 logical processors, using up to 32 threads

Optimize a model with 97 rows, 348 columns and 272 nonzeros
Model fingerprint: 0x5b9124d1
Model has 242 quadratic constraints
Model has 35 general constraints
Variable types: 72 continuous, 276 integer (0 binary)
Coefficient statistics:
  Matrix range     [1e+00, 2e+01]
  QMatrix range    [1e+00, 2e+02]
  QLMatrix range   [1e+00, 1e+00]
  Objective range  [1e+00, 1e+00]
  Bounds range     [1e+00, 2e+06]
  RHS range        [1e+00, 2e+06]
  QRHS range       [2e+02, 9e+03]
Using branch priorities (all 0).
Presolve added 89 rows and 54 columns
Presolve time: 0.01s
Presolved: 836 rows, 724 columns, 3164 nonzeros
Presolved model has 208 SOS constraint(s)
Presolved model has 70 bilinear constraint(s)
Warning: Model contains variables with very large bounds participating
         in product terms.
         Presolve was not able to compute smaller bounds for these variables.
         Consider bounding these variables or reformulating the model.


Solving non-convex MIQCP

Variable types: 198 continuous, 526 integer (179 binary)

Root relaxation: objective 6.149345e+01, 271 iterations, 0.00 seconds (0.00 work units)

    Nodes    |    Current Node    |     Objective Bounds      |     Work
 Expl Unexpl |  Obj  Depth IntInf | Incumbent    BestBd   Gap | It/Node Time

     0     0   61.49345    0  148          -   61.49345      -     -    0s
     0     0   61.49475    0  147          -   61.49475      -     -    0s
     0     0  153.74667    0  209          -  153.74667      -     -    0s
     0     0  154.28097    0  209          -  154.28097      -     -    0s
H    0     0                    2.212926e+07  154.28097   100%     -    0s
H    0     0                    5620499.5000  154.28097   100%     -    0s
     0     0  169.66520    0  269 5620499.50  169.66520   100%     -    0s
     0     0  169.67036    0  268 5620499.50  169.67036   100%     -    0s
     0     0  206.90200    0  283 5620499.50  206.90200   100%     -    0s
H    0     0                    76262.263862  208.68288   100%     -    0s
     0     0  208.68288    0  291 76262.2639  208.68288   100%     -    0s
     0     0  255.45833    0  265 76262.2639  255.45833   100%     -    0s
     0     0  259.88677    0  266 76262.2639  259.88677   100%     -    0s
     0     0  581.31636    0  273 76262.2639  581.31636  99.2%     -    0s
     0     0 2280.65671    0  214 76262.2639 2280.65671  97.0%     -    0s
     0     0 2467.19050    0  258 76262.2639 2467.19050  96.8%     -    0s
     0     0 2500.61187    0  231 76262.2639 2500.61187  96.7%     -    0s
     0     0 3257.86470    0  211 76262.2639 3257.86470  95.7%     -    0s
     0     0 3707.95837    0  231 76262.2639 3707.95837  95.1%     -    0s
     0     0 4764.94662    0  258 76262.2639 4764.94662  93.8%     -    0s
     0     0 5458.41495    0  252 76262.2639 5458.41495  92.8%     -    0s
     0     0 6145.47696    0  223 76262.2639 6145.47696  91.9%     -    0s
     0     0 6145.47696    0  222 76262.2639 6145.47696  91.9%     -    0s
     0     0 6998.98416    0  204 76262.2639 6998.98416  90.8%     -    0s
     0     0 7604.98687    0  175 76262.2639 7604.98687  90.0%     -    0s
     0     0 7604.98687    0  174 76262.2639 7604.98687  90.0%     -    0s
     0     0 8395.43451    0  201 76262.2639 8395.43451  89.0%     -    0s
     0     0 8433.46984    0  186 76262.2639 8433.46984  88.9%     -    0s
     0     0 8513.22462    0  176 76262.2639 8513.22462  88.8%     -    0s
     0     0 8950.35623    0  170 76262.2639 8950.35623  88.3%     -    0s
     0     0 9478.75217    0  174 76262.2639 9478.75217  87.6%     -    0s
     0     0 9898.41639    0  182 76262.2639 9898.41639  87.0%     -    0s
     0     0 10018.5657    0  202 76262.2639 10018.5657  86.9%     -    0s
     0     0 11313.7066    0  201 76262.2639 11313.7066  85.2%     -    0s
     0     0 11564.1969    0  200 76262.2639 11564.1969  84.8%     -    0s
     0     0 12252.9090    0  192 76262.2639 12252.9090  83.9%     -    0s
     0     0 12779.2345    0  192 76262.2639 12779.2345  83.2%     -    0s
     0     0 17109.6916    0   81 76262.2639 17109.6916  77.6%     -    0s
     0     0 17109.6916    0   64 76262.2639 17109.6916  77.6%     -    1s
     0     0 17109.6916    0   80 76262.2639 17109.6916  77.6%     -    1s
     0     0 17109.6916    0   82 76262.2639 17109.6916  77.6%     -    2s
H    0     0                    74297.625000 17109.6916  77.0%     -    2s
     0     0 17109.6916    0   52 74297.6250 17109.6916  77.0%     -    2s
H    0     0                    71214.013863 17109.6916  76.0%     -    2s
     0     0 17109.6916    0   60 71214.0139 17109.6916  76.0%     -    2s
     0     0 17109.6916    0   59 71214.0139 17109.6916  76.0%     -    2s
     0     0 17109.6916    0   68 71214.0139 17109.6916  76.0%     -    2s
     0     0 17109.6916    0   74 71214.0139 17109.6916  76.0%     -    2s
     0     0 17109.6916    0   66 71214.0139 17109.6916  76.0%     -    3s
     0     0 17109.6916    0   61 71214.0139 17109.6916  76.0%     -    3s
     0     2 17109.6916    0   61 71214.0139 17109.6916  76.0%     -    4s
    61    44 17412.6690    7  103 71214.0139 17109.6916  76.0%  51.6    5s
H  307   172                    71213.638863 17109.6916  76.0%  38.0    5s
H  324   172                    71213.576363 17109.6916  76.0%  36.4    5s
H  652   236                    69271.312500 17109.6916  75.3%  31.4    6s
H  875   295                    68355.941165 17109.6916  75.0%  29.3    6s
H 1011   295                    67856.862892 17109.6916  74.8%  29.0    6s
H 1036   295                    65923.789705 17109.6916  74.0%  28.8    6s
H 1125   288                    65891.789705 17109.6916  74.0%  29.1    6s
H 1581   351                    65891.789699 17109.6916  74.0%  28.1    7s
H 1592   351                    64579.894083 17109.6916  73.5%  28.0    7s
* 4225    59              35    64488.038294 17109.6916  73.5%  23.2    9s
* 4227    59              34    63958.461022 17109.6916  73.2%  23.2    9s
* 4228    59              33    63958.211022 17109.6916  73.2%  23.2    9s
  4253    18 45364.5108   14   99 63958.2110 20744.4299  67.6%  23.2   10s
* 4503     0              33    63710.772076 56238.1143  11.7%  22.4   10s

Cutting planes:
  Learned: 1
  Gomory: 11
  Cover: 3
  Implied bound: 241
  Clique: 2
  MIR: 23
  StrongCG: 3
  Flow cover: 11
  Inf proof: 2
  Zero half: 1
  Mod-K: 1
  Network: 1
  RLT: 41
  Relax-and-lift: 9

Explored 4527 nodes (104103 simplex iterations) in 10.73 seconds (0.76 work units)
Thread count was 32 (of 128 available processors)

Solution count 10: 63710.8 63958.2 63958.5 ... 69271.3

Optimal solution found (tolerance 1.00e-04)
Warning: max constraint violation (6.7261e-04) exceeds tolerance
Warning: max general constraint violation (6.7261e-04) exceeds tolerance
Best objective 6.371077207618e+04, best bound 6.371077207618e+04, gap 0.0000%
